
Gurobi 6.0.5 (mac64) logging started Tue Oct 27 16:01:47 2015

Optimize a model with 50 rows, 315 columns and 645 nonzeros
Coefficient statistics:
  Matrix range    [1e+00, 4e+00]
  Objective range [2e-04, 5e+00]
  Bounds range    [1e+00, 1e+00]
  RHS range       [1e+00, 1e+00]
Found heuristic solution: objective 33.3461
Presolve time: 0.00s
Presolved: 50 rows, 315 columns, 645 nonzeros
Variable types: 0 continuous, 315 integer (315 binary)

Root relaxation: objective 6.503730e+00, 59 iterations, 0.00 seconds

    Nodes    |    Current Node    |     Objective Bounds      |     Work
 Expl Unexpl |  Obj  Depth IntInf | Incumbent    BestBd   Gap | It/Node Time

     0     0    6.50373    0   12   33.34610    6.50373  80.5%     -    0s
H    0     0                      11.5023502    6.50373  43.5%     -    0s
H    0     0                       8.1447511    6.50373  20.1%     -    0s
     0     0    6.86502    0   26    8.14475    6.86502  15.7%     -    0s
H    0     0                       7.9698679    6.86502  13.9%     -    0s
     0     0    7.15796    0   31    7.96987    7.15796  10.2%     -    0s
     0     0    7.15796    0   12    7.96987    7.15796  10.2%     -    0s
     0     0    7.15796    0   26    7.96987    7.15796  10.2%     -    0s
     0     0    7.17122    0   29    7.96987    7.17122  10.0%     -    0s
     0     0    7.20932    0   15    7.96987    7.20932  9.54%     -    0s
     0     0    7.25863    0   22    7.96987    7.25863  8.92%     -    0s
     0     0    7.27348    0   55    7.96987    7.27348  8.74%     -    0s
H    0     0                       7.9022676    7.27348  7.96%     -    0s
     0     0    7.27348    0   12    7.90227    7.27348  7.96%     -    0s
     0     0    7.27348    0   17    7.90227    7.27348  7.96%     -    0s
     0     0    7.27348    0   12    7.90227    7.27348  7.96%     -    0s
     0     0    7.27348    0   48    7.90227    7.27348  7.96%     -    0s
     0     0    7.27401    0   47    7.90227    7.27401  7.95%     -    0s
     0     2    7.27401    0   47    7.90227    7.27401  7.95%     -    0s
*   60    11              18       7.8189696    7.31514  6.44%   4.0    0s
H   84     0                       7.6689838    7.31514  4.61%   3.6    0s
*  327     0               9       7.5711129    7.45079  1.59%   3.3    0s

Cutting planes:
  Gomory: 12
  Cover: 26
  Clique: 8
  MIR: 8
  Zero half: 2

Explored 421 nodes (1725 simplex iterations) in 0.11 seconds
Thread count was 4 (of 8 available processors)

Optimal solution found (tolerance 1.00e-04)
Best objective 7.571112923135e+00, best bound 7.571112923135e+00, gap 0.0%
